
  52    4
  10   10   10   10

   0   0   0   0   0   4 2 3 7 8 
   7   1   0   0   1   6 15 14 12 10 6 5 
   3   9   0   1   0   5 13 12 11 10 4 
   8   0   0   4   8   4 20 16 14 9 
   9   0   1   0   5   4 32 16 13 11 
   8   6   6   0   0   3 16 13 9 
   6   3   2   0   0   3 22 14 11 
   6   9   0   0   3   3 20 14 9 
   4   0   7   6   0   6 32 25 22 19 18 17 
   8   0   5   0   4   5 25 20 19 17 16 
   5   4   0   0   3   5 25 20 19 18 17 
   9   6   0   4   0   4 32 25 19 18 
   2   0   0   2   5   4 25 24 20 19 
   3   0   0   4   6   6 33 32 31 26 23 21 
   1   3   0   5   0   6 33 32 31 26 23 21 
   9   0   6   0   3   5 33 30 26 23 22 
   9   4   6   0   0   4 33 26 23 21 
  10   8   0   9   0   5 35 33 31 29 24 
   1   0   3   6   0   4 33 30 26 23 
   1   3   4   0   0   5 35 31 30 27 26 
   9   7   0   0   8   3 35 29 24 
   3   7   0   0   3   4 35 31 29 27 
   6   5   0   3   0   3 35 29 28 
   4   0   8   0   8   3 41 30 27 
   3   4   0   5   0   3 36 33 29 
   6   0   5   0   9   2 41 28 
   1   4   0   3   0   1 28 
   5   4   0   0   9   6 44 39 38 37 36 34 
   7   0   0   7   4   6 44 41 39 38 37 34 
   4   0   4   0   4   5 44 39 38 37 34 
  10   0   7   0   5   5 44 39 38 37 34 
   1   3   0   0   4   5 44 41 39 36 34 
   9   3   0   0   5   4 51 43 42 41 
   5   0   0   3   6   3 51 43 40 
   1   7   4   0   0   3 51 46 39 
   5   4   6   0   0   2 46 40 
   7   7   9   0   0   4 50 49 45 43 
   6   5   0   6   0   4 50 46 45 42 
   5   0   5   6   0   1 40 
   1   0   0   7   4   3 50 45 42 
   9   5   8   0   0   4 50 49 46 45 
   5   4   2   0   0   3 49 48 47 
   4   0   6   0   3   2 48 46 
   1   3   0   4   0   2 48 47 
   7   0   5   0   5   1 47 
   4   0   4   0   4   1 47 
   2   7   0   0   5   1 52
   6   5   0   3   0   1 52
   3   0   4   7   0   1 52
   9   0   4  10   0   1 52
   8   0   4   0   6   1 52
   0   0   0   0   0   0 
